\ENCODING=ISO-8859-1
\Problem name: IloCplex

Maximize
 obj: x54 + [ - 8 x1 * x53 - 8 x19 * x52 - 2 x37 * x53 - 2 x51 * x52 ] / 2
Subject To
 c1:  x1 + x2 + x3 + x4 + x5 + x6 + x7 + x8 + x9 + x10 + x11 + x12 + x13 + x14
      + x15 + x16 + x17 + x18  = 0
 c2:  x19 + x20 + x21 + x22 + x23 + x24 + x25 + x26 + x27 + x28 + x29 + x30
      + x31 + x32 + x33 + x34 + x35 + x36  = 0
 c3:  x37 - 4 x38 - 2 x39 - 3 x40 - 2 x41 - 3 x42 - 2 x43 - 4 x44 - 2 x45
      - 3 x46 - 2 x47 - 3 x48 - 3 x49 - x50  = 0
 c4:  x51  = 34
 c5:  - x38 - x39 - x40 - x41 - x42 - x43 - x44 - x45 - x46 - x47 - x48 - x49
      - x50 + x52  = 0
 c6:  x52 + x53  = 13
 c7:  x2 - x38 <= 0
 c8:  x2 - x39 <= 0
 c9:  x20 + x38 <= 1
 c10: x20 + x39 <= 1
 c11: x3 - x38 <= 0
 c12: x3 - x40 <= 0
 c13: x21 + x38 <= 1
 c14: x21 + x40 <= 1
 c15: x4 - x38 <= 0
 c16: x4 - x41 <= 0
 c17: x22 + x38 <= 1
 c18: x22 + x41 <= 1
 c19: x5 - x38 <= 0
 c20: x5 - x42 <= 0
 c21: x23 + x38 <= 1
 c22: x23 + x42 <= 1
 c23: x6 - x39 <= 0
 c24: x6 - x40 <= 0
 c25: x24 + x39 <= 1
 c26: x24 + x40 <= 1
 c27: x7 - x40 <= 0
 c28: x7 - x41 <= 0
 c29: x25 + x40 <= 1
 c30: x25 + x41 <= 1
 c31: x8 - x42 <= 0
 c32: x8 - x43 <= 0
 c33: x26 + x42 <= 1
 c34: x26 + x43 <= 1
 c35: x9 - x42 <= 0
 c36: x9 - x44 <= 0
 c37: x27 + x42 <= 1
 c38: x27 + x44 <= 1
 c39: x10 - x43 <= 0
 c40: x10 - x45 <= 0
 c41: x28 + x43 <= 1
 c42: x28 + x45 <= 1
 c43: x11 - x44 <= 0
 c44: x11 - x45 <= 0
 c45: x29 + x44 <= 1
 c46: x29 + x45 <= 1
 c47: x12 - x44 <= 0
 c48: x12 - x46 <= 0
 c49: x30 + x44 <= 1
 c50: x30 + x46 <= 1
 c51: x13 - x44 <= 0
 c52: x13 - x49 <= 0
 c53: x31 + x44 <= 1
 c54: x31 + x49 <= 1
 c55: x14 - x46 <= 0
 c56: x14 - x47 <= 0
 c57: x32 + x46 <= 1
 c58: x32 + x47 <= 1
 c59: x15 - x46 <= 0
 c60: x15 - x48 <= 0
 c61: x33 + x46 <= 1
 c62: x33 + x48 <= 1
 c63: x16 - x47 <= 0
 c64: x16 - x48 <= 0
 c65: x34 + x47 <= 1
 c66: x34 + x48 <= 1
 c67: x17 - x48 <= 0
 c68: x17 - x49 <= 0
 c69: x35 + x48 <= 1
 c70: x35 + x49 <= 1
 c71: x18 - x49 <= 0
 c72: x18 - x50 <= 0
 c73: x36 + x49 <= 1
 c74: x36 + x50 <= 1
Bounds
      x1 Free
 0 <= x2 <= 1
 0 <= x3 <= 1
 0 <= x4 <= 1
 0 <= x5 <= 1
 0 <= x6 <= 1
 0 <= x7 <= 1
 0 <= x8 <= 1
 0 <= x9 <= 1
 0 <= x10 <= 1
 0 <= x11 <= 1
 0 <= x12 <= 1
 0 <= x13 <= 1
 0 <= x14 <= 1
 0 <= x15 <= 1
 0 <= x16 <= 1
 0 <= x17 <= 1
 0 <= x18 <= 1
      x19 Free
 0 <= x20 <= 1
 0 <= x21 <= 1
 0 <= x22 <= 1
 0 <= x23 <= 1
 0 <= x24 <= 1
 0 <= x25 <= 1
 0 <= x26 <= 1
 0 <= x27 <= 1
 0 <= x28 <= 1
 0 <= x29 <= 1
 0 <= x30 <= 1
 0 <= x31 <= 1
 0 <= x32 <= 1
 0 <= x33 <= 1
 0 <= x34 <= 1
 0 <= x35 <= 1
 0 <= x36 <= 1
 0 <= x38 <= 1
 0 <= x39 <= 1
 0 <= x40 <= 1
 0 <= x41 <= 1
 0 <= x42 <= 1
 0 <= x43 <= 1
 0 <= x44 <= 1
 0 <= x45 <= 1
 0 <= x46 <= 1
 0 <= x47 <= 1
 0 <= x48 <= 1
 0 <= x49 <= 1
 0 <= x50 <= 1
      x54 = 2.61538461538462
Binaries
 x2  x3  x4  x5  x6  x7  x8  x9  x10  x11  x12  x13  x14  x15  x16  x17  x18 
 x20  x21  x22  x23  x24  x25  x26  x27  x28  x29  x30  x31  x32  x33  x34 
 x35  x36  x38  x39  x40  x41  x42  x43  x44  x45  x46  x47  x48  x49  x50 
End
